
  12    4
  10   10   10   10

   0   0   0   0   0   1 2 
   3  10  10  10  10   2 4 3 
  10  10  10  10  10   2 9 5 
   1  10  10  10  10   2 9 5 
   8  10  10  10  10   2 7 6 
   2  10  10  10  10   2 10 8 
  10  10  10  10  10   2 10 8 
   8  10  10  10  10   1 11 
   1  10  10  10  10   1 10 
   7  10  10  10  10   1 12
   7  10  10  10  10   1 12
   0   0   0   0   0   0 
